%mem=10GB
%nprocshared=1
%chk=t1.chk
#T freq HF/3-21g

t1

0  1
C           3.14500         2.47040         1.14860
C           1.35940         3.01450        -0.39110
C          -3.34780         0.90060         3.36390
C           2.28140         2.67810         2.22440
C           0.49390         3.22490         0.68060
C          -3.29710         2.20520         3.85820
C          -1.04530         1.08540         2.65430
C           1.92200        -0.50370        -0.84660
C           1.11540        -0.84220        -3.48770
C          -2.72200        -4.72200        -0.59520
C           2.68750         2.62090        -0.16800
C          -2.22130         0.32980         2.76060
C           2.70290         0.03720        -1.88200
C           2.31360        -0.16810        -3.21530
C          -3.14770        -3.47310        -0.11710
C          -2.20720        -2.44960         0.09940
C           0.95190         3.02520         1.98460
C          -1.00310         2.40190         3.12820
C           0.74640        -1.20770        -1.12680
C          -0.85670        -2.69450        -0.21740
C          -2.12590         2.95450         3.74550
C           0.32480        -1.34190        -2.45120
C          -1.37240        -4.96560        -0.84610
C          -0.43600        -3.95490        -0.65510
C           3.60620         2.35400        -1.33870
C          -2.25900        -1.07410         2.20600
C           3.20980         0.23720        -4.35780
C          -4.62180        -3.22350         0.06820
C           4.46070         1.02940        -3.95580
C          -4.93360        -1.95170         0.85870
C           3.95380         0.85170        -1.57230
C          -2.64070        -1.11680         0.69930
C           6.25570         1.23530        -2.35150
C          -4.36290        -0.29360        -0.82510
C          -1.14480        -1.96400        -4.21450
C          -0.96580        -6.40350        -2.69620
C           1.63860        -4.71570         0.22400
N           4.96060         0.62620        -2.63750
N          -4.07860        -0.80980         0.51410
O           0.12360         3.19770         3.06980
O           0.06460        -1.68740        -0.02590
O          -2.10070         4.22590         4.23460
O          -0.86240        -1.90170        -2.81820
O          -0.98660        -6.19620        -1.28530
O           0.88390        -4.21590        -0.87730
H           4.17400         2.17820         1.34150
H           0.98710         3.14750        -1.40390
H          -4.27020         0.33310         3.45550
H           2.64360         2.54570         3.23990
H          -0.53180         3.52690         0.48880
H          -4.17790         2.63270         4.33020
H          -0.16900         0.62970         2.19980
H           2.23260        -0.37760         0.18840
H           0.80060        -0.98250        -4.52000
H          -3.45080        -5.51000        -0.77320
H           3.15080         2.78820        -2.23740
H           4.51910         2.93430        -1.15810
H          -1.26620        -1.51780         2.36310
H          -2.92380        -1.69610         2.81760
H           3.53500        -0.68600        -4.85610
H           2.63560         0.82150        -5.08670
H          -5.07990        -3.15460        -0.92640
H          -5.07930        -4.07770         0.58200
H           5.22660         0.85660        -4.72310
H           4.24510         2.10420        -3.98790
H          -5.99080        -1.68790         0.72650
H          -4.83590        -2.16560         1.92950
H           4.37880         0.43820        -0.64710
H          -2.07150        -0.32450         0.19290
H           6.60890         0.92170        -1.36570
H           6.17190         2.32540        -2.36500
H           6.99040         0.93100        -3.10180
H          -3.70950         0.55390        -1.04770
H          -5.40300         0.03740        -0.88970
H          -4.19600        -1.07280        -1.57380
H          -2.12010        -2.43190        -4.36920
H          -0.36700        -2.54280        -4.71900
H          -1.16170        -0.94940        -4.61940
H          -0.64070        -7.42460        -2.91040
H          -0.28330        -5.68740        -3.16060
H          -1.97300        -6.25360        -3.09230
H           2.67300        -4.88120        -0.08730
H           1.19780        -5.65270         0.57360
H           1.61690        -3.98110         1.03240
H          -2.96060         4.45290         4.62180

--Link1--
%mem=10GB
%nprocshared=1
%chk=t1.chk
#T Geom=AllCheck Guess=TCheck opt(readfc,ModRedundant,MaxCycles=1000)  HF/6-31g* NoSym



--Link1--
%mem=10GB
%nprocshared=1
%chk=t1.chk
# Geom=AllCheck Guess=TCheck MP2/6-311+g**



