%mem=10GB
%nprocshared=1
%chk=t10.chk
#T freq HF/3-21g

t10

0  1
C           1.88510        -1.03630        -0.11240
C           0.80660        -0.46300         0.56100
C           9.79810        -3.92110         0.84120
C           8.88500        -4.25540        -1.35850
C           2.87830        -1.65200         2.00220
C          10.98380        -4.46370         0.37270
C          10.11160        -4.78280        -1.72860
C           2.92100        -1.63090         0.60810
C           8.73350        -3.81850        -0.04720
C           0.76380        -0.48410         1.95510
C           1.79970        -1.07860         2.67570
C           4.04420        -2.23100        -0.09440
C           5.25680        -2.48600         0.44700
C           6.34640        -3.09900        -0.37300
C          -1.31130         0.66580         1.78970
C           2.86600        -1.73070         4.69890
N          11.16870        -4.89870        -0.89380
N           7.49940        -3.27100         0.38180
O           6.17180        -3.38690        -1.55120
O          -0.29510         0.07930         2.60060
O           1.76880        -1.10420         4.03740
H           1.90400        -1.01320        -1.19940
H           0.00300        -0.00130        -0.00630
H           9.71370        -3.58990         1.87090
H           8.07500        -4.19010        -2.07740
H           3.68160        -2.11400         2.57200
H          11.84450        -4.56570         1.02560
H          10.28130        -5.13700        -2.74000
H           3.87810        -2.47040        -1.15070
H           5.47220        -2.24340         1.48220
H          -2.09580         1.07820         2.42880
H          -1.73020        -0.09270         1.12360
H          -0.87100         1.46850         1.19330
H           2.71650        -1.68200         5.78030
H           3.79500        -1.22390         4.42560
H           2.91860        -2.77660         4.38740
H           7.45250        -2.96970         1.35310

--Link1--
%mem=10GB
%nprocshared=1
%chk=t10.chk
#T Geom=AllCheck Guess=TCheck opt(readfc,ModRedundant,MaxCycles=1000)  HF/6-31g* NoSym



--Link1--
%mem=10GB
%nprocshared=1
%chk=t10.chk
# Geom=AllCheck Guess=TCheck MP2/6-311+g**



