%mem=10GB
%nprocshared=1
%chk=t2.chk
#T freq HF/3-21g

t2

0  1
C          -3.75870         0.35780         5.99920
C          -3.54930         1.47950         5.19150
C          -1.70390         0.36330         4.12990
C          -1.92100        -0.76070         4.94580
C          -2.95640        -0.77580         5.89460
C          -2.52100         1.48250         4.25560
C          -1.14090        -1.91110         4.87050
C          -2.34800        -2.89870         6.51060
C           0.56490         4.77740         6.33020
C           1.12510         4.06190         5.10410
C          -0.77930         5.42570         6.01060
C           0.11880         3.06830         4.53320
C          -1.75910         4.41250         5.42790
N          -3.17300        -1.84540         6.67990
N          -1.32980        -2.99880         5.64100
N          -1.15900         3.77340         4.21970
N          -0.07690        -1.96980         3.93630
N          -2.58140        -4.01820         7.33880
O          -1.56740         2.45930         2.03980
O          -3.50010         3.63010         3.15410
S          -2.25510         2.89760         3.23480
H          -4.57040         0.38080         6.72390
H          -4.19790         2.34410         5.30460
H          -0.90340         0.37910         3.39400
H           0.44090         4.05940         7.15010
H           1.27360         5.53940         6.67300
H           1.38050         4.80530         4.33840
H           2.05150         3.54080         5.37010
H          -1.20160         5.87040         6.91850
H          -0.62500         6.24090         5.29260
H           0.52960         2.63270         3.61580
H          -0.07240         2.25780         5.24590
H          -2.00700         3.64290         6.16800
H          -2.68180         4.93120         5.14570
H           0.06270        -1.20140         3.31700
H           0.44660        -2.81420         3.85610
H          -3.29870        -3.96880         8.03260
H          -1.96520        -4.80270         7.28060

--Link1--
%mem=10GB
%nprocshared=1
%chk=t2.chk
#T Geom=AllCheck Guess=TCheck opt(readfc,ModRedundant,MaxCycles=1000)  HF/6-31g* NoSym



--Link1--
%mem=10GB
%nprocshared=1
%chk=t2.chk
# Geom=AllCheck Guess=TCheck MP2/6-311+g**



