%mem=10GB
%nprocshared=1
%chk=t4.chk
#T freq HF/3-21g

t4

0  1
C           8.06050        -2.00370        -7.99280
C           6.99310        -1.13830        -8.23430
C           8.03990        -2.84620        -6.88300
C           5.89940        -1.11590        -7.36070
C           5.87900        -1.95980        -6.24840
C           3.62710        -0.18200        -6.69160
C           3.60580        -1.02520        -5.58330
C           1.45380         0.72080        -6.05460
C           1.42520        -0.14080        -4.94480
C           6.95200        -2.82680        -6.00980
C           2.55430         0.68530        -6.92720
C           2.51000        -1.00350        -4.71310
C           4.77360        -0.19620        -7.62330
C           4.73120        -1.94520        -5.31870
C          -1.92920         2.48750        -5.74540
C           0.30920         1.65540        -6.37490
C          -0.98820         0.52750        -4.52370
C          -0.15700         1.02420        -0.57660
C           0.27400        -0.13940        -3.96730
C          -0.76130         0.43380         0.69910
C           0.07250        -0.76280         1.18130
C           0.25150        -1.76810         0.03260
C           0.03600        -0.07000        -1.62660
C          -0.67360         1.85450        -5.21800
C           1.15410        -2.93520         0.41640
C           7.59290        -3.18250        -3.74740
C          -3.01270         1.53930        -6.21320
N          -0.86310         1.46010         1.73400
O           4.79050         0.54260        -8.60000
O           4.71330        -2.68520        -4.34300
O          -2.05870         3.71000        -5.78950
O           0.84420        -1.12420        -1.10330
O           2.54950         1.52480        -8.00680
O           2.45210        -1.85120        -3.64230
O           1.36240        -0.32320         1.61030
O          -0.13670         2.80170        -4.30290
O          -4.12930         2.25670        -6.69480
O           6.99880        -3.67740        -4.94520
O           0.66320         0.51890        -2.76180
H           8.90880        -2.02060        -8.67090
H           7.03510        -0.49220        -9.10700
H           8.87680        -3.51650        -6.70500
H           0.73660         2.62490        -6.66100
H          -0.24140         1.28920        -7.25000
H          -1.49930        -0.15980        -5.20760
H          -1.71160         0.70070        -3.71690
H          -0.79330         1.82130        -0.98120
H           0.81400         1.49030        -0.35910
H           0.06000        -1.19560        -3.71780
H          -1.77390         0.08490         0.47480
H          -0.41630        -1.24850         2.03440
H          -0.72300        -2.17060        -0.26110
H          -0.93250        -0.47180        -1.94750
H           2.13480        -2.56490         0.71450
H           1.27280        -3.60860        -0.43220
H           0.71590        -3.48680         1.24800
H           7.56620        -3.95880        -2.97880
H           7.04720        -2.29880        -3.40710
H           8.63130        -2.91070        -3.95160
H          -3.32760         0.89960        -5.38420
H          -2.62020         0.92320        -7.02650
H          -0.92260         1.16250         2.68270
H          -1.07290         2.39130         1.44930
H           3.36110         1.40530        -8.52100
H           3.24440        -2.40710        -3.61910
H           1.77730         0.09560         0.84160
H           0.03360         3.61040        -4.81040
H          -4.79190         1.60320        -6.98090

--Link1--
%mem=10GB
%nprocshared=1
%chk=t4.chk
#T Geom=AllCheck Guess=TCheck opt(readfc,ModRedundant,MaxCycles=1000)  HF/6-31g* NoSym



--Link1--
%mem=10GB
%nprocshared=1
%chk=t4.chk
# Geom=AllCheck Guess=TCheck MP2/6-311+g**



