%mem=10GB
%nprocshared=1
%chk=t5.chk
#T freq HF/3-21g

t5

0  1
C          -4.90350        -0.16210        -5.06920
C          -5.84550         0.73900        -5.55310
C          -3.93840         0.27260        -4.16620
C          -5.82080         2.07210        -5.13290
C          -2.85550         7.62130        -1.88910
C          -2.47190         5.62060        -0.59010
C          -2.03880         8.34300        -1.01860
C          -1.65520         6.34240         0.28030
C          -3.92030         1.61470        -3.74850
C          -4.86640         2.53420        -4.22990
C          -3.07210         6.26010        -1.67480
C          -1.43860         7.70360         0.06610
C          -2.98300         2.11330        -2.84810
C          -3.89880         4.18000        -2.96060
C          -0.14040        -0.20640        -2.17650
C          -0.74100        -0.04730        -0.79450
C          -0.68460         1.00700        -2.92180
C          -2.14740         0.45810        -1.09500
N          -4.85840         3.82000        -3.83700
N          -2.94610         3.39390        -2.43400
N          -2.00290         1.24970        -2.32290
N          -3.89610         5.53190        -2.55300
O          -0.64170         8.40790         0.91550
H          -4.92150        -1.19780        -5.39440
H          -6.60220         0.40760        -6.25850
H          -3.21270        -0.45040        -3.80270
H          -6.56870         2.75760        -5.52740
H          -3.31820         8.12960        -2.73120
H          -2.63390         4.56030        -0.41380
H          -1.87380         9.40320        -1.19070
H          -1.19040         5.83870         1.12360
H           0.95250        -0.23670        -2.16730
H          -0.50650        -1.12990        -2.64110
H          -0.74480        -0.97800        -0.22060
H          -0.18220         0.70590        -0.22610
H          -0.04950         1.89080        -2.76380
H          -0.75120         0.81760        -4.00210
H          -2.83940        -0.37550        -1.28380
H          -2.54500         1.05610        -0.26330
H          -4.63330         6.08500        -2.97860
H          -0.30020         7.82800         1.61480

--Link1--
%mem=10GB
%nprocshared=1
%chk=t5.chk
#T Geom=AllCheck Guess=TCheck opt(readfc,ModRedundant,MaxCycles=1000)  HF/6-31g* NoSym



--Link1--
%mem=10GB
%nprocshared=1
%chk=t5.chk
# Geom=AllCheck Guess=TCheck MP2/6-311+g**



