%mem=10GB
%nprocshared=1
%chk=t6.chk
#T freq HF/3-21g

t6

0  1
C           8.99740        -5.16050        -0.08320
C           1.77810        -1.20460        -0.10900
C           8.31080        -5.29430         1.12350
C           9.07390        -3.91570        -0.70790
C           1.02590        -0.12280         0.33500
C           8.50100         1.43740         5.27530
C           9.01600         2.69540         5.58800
C           3.09130        -1.35240         0.32630
C           7.70040        -4.18320         1.70560
C           8.46350        -2.80460        -0.12590
C           1.58790         0.80850         1.21320
C           7.24660         1.32680         4.67510
C           8.27670         3.84280         5.30060
C           3.64930        -0.41170         1.20940
C           7.77680        -2.93840         1.08090
C           2.89960         0.68500         1.66500
C           6.50730         2.47420         4.38780
C           7.02230         3.73220         4.70050
C           4.95530        -0.50130         1.68250
C           4.70000         1.39250         2.89540
C           7.11990        -1.74210         1.70670
N           3.42310         1.59060         2.50980
N           5.51070         0.38710         2.52810
N           5.24340         2.34780         3.78200
N           5.77270        -1.58150         1.26600
O           6.31590         4.86540         4.42820
H           9.47370        -6.02540        -0.53550
H           1.34300        -1.92890        -0.79090
H           8.25210        -6.26330         1.61070
H           9.60930        -3.81090        -1.64680
H          -0.00010        -0.00020        -0.00020
H           9.07630         0.54410         5.49980
H           9.99260         2.78150         6.05490
H           3.65910        -2.20590        -0.03520
H           7.16740        -4.29690         2.64590
H           8.52820        -1.83870        -0.61980
H           0.97820         1.64690         1.54500
H           6.85560         0.34110         4.43550
H           8.68380         4.82010         5.54630
H           7.10900        -1.83450         2.79820
H           7.66350        -0.82320         1.46340
H           4.59350         3.08750         4.02880
H           5.35920        -2.23910         0.63720
H           6.81670         5.64730         4.70830

--Link1--
%mem=10GB
%nprocshared=1
%chk=t6.chk
#T Geom=AllCheck Guess=TCheck opt(readfc,ModRedundant,MaxCycles=1000)  HF/6-31g* NoSym



--Link1--
%mem=10GB
%nprocshared=1
%chk=t6.chk
# Geom=AllCheck Guess=TCheck MP2/6-311+g**



