%mem=10GB
%nprocshared=1
%chk=t7.chk
#T freq HF/3-21g

t7

0  1
C           1.59840         0.70790        -1.35400
C           1.72680         0.84890        -2.76590
C           0.57930         0.45270        -3.42160
C           0.36470         0.20580        -0.99650
C           2.61310         1.03550        -0.38420
C          -1.45680        -0.60320         0.54720
C           2.90120         1.37320        -3.52830
C           0.41880         0.45860        -4.91160
C           2.79190         1.03600        -5.03010
C           2.11850        -0.10060        -7.39290
C           2.03100         2.40490        -7.63880
C          -1.59000         0.55100         2.78490
C          -0.67740        -1.76810         2.65440
C          -3.13560        -1.34460         2.28970
C           1.39470         1.17910        -7.00000
C          -1.71580        -0.80300         2.06120
N           1.43800         1.32660        -5.54580
N           2.63640         2.33330         0.13480
N          -0.17300        -0.08340         0.22880
O           3.46930         0.20200        -0.01560
O          -2.31810        -0.88480        -0.28410
S          -0.63130        -0.09190        -2.35980
H           2.98420         2.45920        -3.40670
H           3.81360         0.92200        -3.11820
H           0.52710        -0.56120        -5.30020
H          -0.59360         0.80920        -5.15250
H           3.54400         1.60280        -5.59590
H           3.02720        -0.02820        -5.15450
H           3.17250        -0.05810        -7.09990
H           1.66680        -0.97800        -6.91640
H           2.07370        -0.25540        -8.47650
H           3.08430         2.49060        -7.35000
H           1.51770         3.31940        -7.32390
H           1.99300         2.35170        -8.73260
H          -1.76810         0.44410         3.86120
H          -2.31290         1.27850         2.39870
H          -0.58820         0.97780         2.65830
H          -0.84980        -1.91810         3.72640
H           0.34570        -1.39480         2.53910
H          -0.72270        -2.74760         2.16500
H          -3.33200        -1.49070         3.35810
H          -3.27760        -2.30740         1.78570
H          -3.90340        -0.66290         1.90870
H           0.34380         1.11420        -7.30240
H           1.94420         3.00310        -0.18300
H           3.32570         2.62500         0.82020
H           0.42300         0.09320         1.05910

--Link1--
%mem=10GB
%nprocshared=1
%chk=t7.chk
#T Geom=AllCheck Guess=TCheck opt(readfc,ModRedundant,MaxCycles=1000)  HF/6-31g* NoSym



--Link1--
%mem=10GB
%nprocshared=1
%chk=t7.chk
# Geom=AllCheck Guess=TCheck MP2/6-311+g**



