%mem=10GB
%nprocshared=1
%chk=t8.chk
#T freq HF/3-21g

t8

0  1
C          -3.76160        -3.09750         4.98060
C           2.60160        -3.56150         1.35650
C          -1.43060        -3.58240         3.54160
C           0.79010        -2.54550        -0.49840
C          -3.81250        -3.87690         3.81480
C           2.01230        -4.42110         0.41750
C          -2.64490        -4.09720         3.05750
C           1.07010        -3.92160        -0.50480
C          -2.55270        -2.56890         5.42470
C           2.29090        -2.20400         1.36310
C          -1.38660        -2.81840         4.70990
C           1.39100        -1.69550         0.43210
C          -5.13490        -4.43900         3.36620
C           2.36370        -5.88670         0.43780
C          -1.85890        -4.36870         0.64000
C           1.99290        -6.58210        -0.86890
C          -4.96840        -5.59010         2.37720
C          -4.10740        -6.12780         0.18820
C          -2.69610        -4.95960         1.79550
C           0.44120        -4.84880        -1.53720
C          -1.86240        -5.27630        -0.60370
C          -3.31100        -5.60410        -1.01940
C          -4.78410        -6.92400        -2.54810
C          -2.70570        -0.41390         6.41880
C           3.79050        -1.98690         3.19610
C           0.56610        -3.14970         6.02620
C          -0.01020         0.05790         1.21840
C          -1.06270        -4.61310        -1.72800
C          -3.37520        -6.62680        -2.15730
N           0.60820        -6.28170        -1.22370
N          -4.07720        -5.16400         1.29490
O          -2.52400        -1.82150         6.56250
O           2.88010        -1.38490         2.27770
O          -0.19170        -2.32650         5.14210
O           1.08910        -0.36690         0.41540
H          -4.67070        -2.90980         5.54770
H           3.31100        -3.95440         2.08150
H          -0.49830        -3.77990         3.01980
H           0.10460        -2.11920        -1.22630
H          -5.70000        -4.80090         4.23340
H          -5.71460        -3.63030         2.90330
H           3.43910        -6.01260         0.61210
H           1.83090        -6.35610         1.27420
H          -2.23990        -3.37160         0.37750
H          -0.81640        -4.22970         0.94720
H           2.66860        -6.28050        -1.67920
H           2.10820        -7.66450        -0.74410
H          -4.57770        -6.48430         2.88140
H          -5.96170        -5.84450         1.98750
H          -5.14610        -6.28290        -0.13120
H          -3.72060        -7.10420         0.50990
H          -2.26840        -5.93300         2.07880
H           0.93550        -4.64680        -2.49840
H          -1.35140        -6.21230        -0.33790
H          -3.79400        -4.68220        -1.37300
H          -5.32810        -7.31810        -1.68170
H          -4.82020        -7.67690        -3.34270
H          -5.29630        -6.01730        -2.88710
H          -2.66090         0.06220         7.40140
H          -3.67310        -0.21650         5.95020
H          -1.90880        -0.01530         5.78660
H           4.18820        -1.22360         3.86930
H           4.60560        -2.46170         2.64420
H           3.25920        -2.74280         3.77940
H           1.49490        -2.63990         6.29370
H           0.78820        -4.10210         5.53820
H          -0.01930        -3.33360         6.93020
H          -0.14290         1.13750         1.11400
H           0.18110        -0.19710         2.26380
H          -0.91520        -0.45250         0.88070
H          -1.29480        -3.55350        -1.71320
H          -1.40620        -5.03530        -2.66630
H          -2.82820        -6.23390        -3.01670
H          -2.87950        -7.54490        -1.83560
H           0.33480        -6.83710        -2.03420

--Link1--
%mem=10GB
%nprocshared=1
%chk=t8.chk
#T Geom=AllCheck Guess=TCheck opt(readfc,ModRedundant,MaxCycles=1000)  HF/6-31g* NoSym



--Link1--
%mem=10GB
%nprocshared=1
%chk=t8.chk
# Geom=AllCheck Guess=TCheck MP2/6-311+g**



