%mem=10GB
%nprocshared=1
%chk=t9.chk
#T freq HF/3-21g

t9

0  1
C          -6.43510        -0.45520         0.37570
C          -5.22300        -0.80560        -0.22630
C          -4.06270        -0.26440         1.80800
C          -5.28550         0.08610         2.40630
C          -6.49170        -0.00600         1.69280
C          -4.03540        -0.71030         0.49040
C          -5.38220         0.53860         3.71920
C          -7.62790         0.75120         3.53450
C          -2.44480        -3.11170         1.60460
C          -3.38690        -3.69100        -0.62140
C          -1.88390        -4.50090         1.87210
C          -2.92370        -5.14020        -0.58380
N          -7.66690         0.32630         2.25530
N          -6.54140         0.87970         4.31290
N          -2.44280        -2.81860         0.13970
N          -4.20690         0.65770         4.50200
N          -8.86570         1.09860         4.11850
O          -2.66450        -1.02580        -1.69930
O          -1.44320        -0.46230         0.43110
S          -2.91360        -5.78990         1.11230
S          -2.50440        -1.15230        -0.26780
H          -7.35060        -0.53880        -0.20690
H          -5.22210        -1.15160        -1.25660
H          -3.12650        -0.19460         2.35700
H          -3.45790        -3.00150         2.00920
H          -1.80300        -2.38210         2.11210
H          -3.40320        -3.36680        -1.66860
H          -4.40300        -3.58250        -0.22370
H          -0.86470        -4.59300         1.48150
H          -1.84430        -4.68580         2.95010
H          -3.59540        -5.76210        -1.18390
H          -1.91610        -5.23990        -1.00140
H          -3.33680         0.36930         4.11060
H          -4.29020         0.93720         5.45510
H          -9.69370         1.06300         3.56040
H          -8.87890         1.46320         5.04870

--Link1--
%mem=10GB
%nprocshared=1
%chk=t9.chk
#T Geom=AllCheck Guess=TCheck opt(readfc,ModRedundant,MaxCycles=1000)  HF/6-31g* NoSym



--Link1--
%mem=10GB
%nprocshared=1
%chk=t9.chk
# Geom=AllCheck Guess=TCheck MP2/6-311+g**



